p cnf 102 311
1 2 0
-1 -2 0
13 14 0
-13 -14 0
25 26 0
-25 -26 0
37 38 0
-37 -38 0
3 4 0
-3 -4 0
15 16 0
-15 -16 0
27 28 0
-27 -28 0
39 40 0
-39 -40 0
5 6 0
-5 -6 0
17 18 0
-17 -18 0
29 30 0
-29 -30 0
41 42 0
-41 -42 0
7 8 0
-7 -8 0
19 20 0
-19 -20 0
31 32 0
-31 -32 0
43 44 0
-43 -44 0
9 10 0
-9 -10 0
21 22 0
-21 -22 0
33 34 0
-33 -34 0
45 46 0
-45 -46 0
11 12 0
-11 -12 0
23 24 0
-23 -24 0
35 36 0
-35 -36 0
47 48 0
-47 -48 0
-1 -13 -37 4 0
-1 -14 -37 4 0
-1 -13 -38 4 0
-1 -14 -38 4 0
-2 -13 -37 4 0
-2 -14 -37 4 0
-2 -13 -38 4 0
-2 -14 -38 3 0
-13 -1 -25 16 0
-13 -2 -25 16 0
-13 -1 -26 16 0
-13 -2 -26 16 0
-14 -1 -25 16 0
-14 -2 -25 16 0
-14 -1 -26 16 0
-14 -2 -26 15 0
-25 -13 -37 28 0
-25 -14 -37 28 0
-25 -13 -38 28 0
-25 -14 -38 28 0
-26 -13 -37 28 0
-26 -14 -37 28 0
-26 -13 -38 28 0
-26 -14 -38 27 0
-37 -1 -25 40 0
-37 -2 -25 40 0
-37 -1 -26 40 0
-37 -2 -26 40 0
-38 -1 -25 40 0
-38 -2 -25 40 0
-38 -1 -26 40 0
-38 -2 -26 39 0
-3 -15 -39 6 0
-3 -16 -39 6 0
-3 -15 -40 6 0
-3 -16 -40 6 0
-4 -15 -39 6 0
-4 -16 -39 6 0
-4 -15 -40 6 0
-4 -16 -40 5 0
-15 -3 -27 18 0
-15 -4 -27 18 0
-15 -3 -28 18 0
-15 -4 -28 18 0
-16 -3 -27 18 0
-16 -4 -27 18 0
-16 -3 -28 18 0
-16 -4 -28 17 0
-27 -15 -39 30 0
-27 -16 -39 30 0
-27 -15 -40 30 0
-27 -16 -40 30 0
-28 -15 -39 30 0
-28 -16 -39 30 0
-28 -15 -40 30 0
-28 -16 -40 29 0
-39 -3 -27 42 0
-39 -4 -27 42 0
-39 -3 -28 42 0
-39 -4 -28 42 0
-40 -3 -27 42 0
-40 -4 -27 42 0
-40 -3 -28 42 0
-40 -4 -28 41 0
-5 -17 -41 8 0
-5 -18 -41 8 0
-5 -17 -42 8 0
-5 -18 -42 8 0
-6 -17 -41 8 0
-6 -18 -41 8 0
-6 -17 -42 8 0
-6 -18 -42 7 0
-17 -5 -29 20 0
-17 -6 -29 20 0
-17 -5 -30 20 0
-17 -6 -30 20 0
-18 -5 -29 20 0
-18 -6 -29 20 0
-18 -5 -30 20 0
-18 -6 -30 19 0
-29 -17 -41 32 0
-29 -18 -41 32 0
-29 -17 -42 32 0
-29 -18 -42 32 0
-30 -17 -41 32 0
-30 -18 -41 32 0
-30 -17 -42 32 0
-30 -18 -42 31 0
-41 -5 -29 44 0
-41 -6 -29 44 0
-41 -5 -30 44 0
-41 -6 -30 44 0
-42 -5 -29 44 0
-42 -6 -29 44 0
-42 -5 -30 44 0
-42 -6 -30 43 0
-7 -19 -43 10 0
-7 -20 -43 10 0
-7 -19 -44 10 0
-7 -20 -44 10 0
-8 -19 -43 10 0
-8 -20 -43 10 0
-8 -19 -44 10 0
-8 -20 -44 9 0
-19 -7 -31 22 0
-19 -8 -31 22 0
-19 -7 -32 22 0
-19 -8 -32 22 0
-20 -7 -31 22 0
-20 -8 -31 22 0
-20 -7 -32 22 0
-20 -8 -32 21 0
-31 -19 -43 34 0
-31 -20 -43 34 0
-31 -19 -44 34 0
-31 -20 -44 34 0
-32 -19 -43 34 0
-32 -20 -43 34 0
-32 -19 -44 34 0
-32 -20 -44 33 0
-43 -7 -31 46 0
-43 -8 -31 46 0
-43 -7 -32 46 0
-43 -8 -32 46 0
-44 -7 -31 46 0
-44 -8 -31 46 0
-44 -7 -32 46 0
-44 -8 -32 45 0
-9 -21 -45 12 0
-9 -22 -45 12 0
-9 -21 -46 12 0
-9 -22 -46 12 0
-10 -21 -45 12 0
-10 -22 -45 12 0
-10 -21 -46 12 0
-10 -22 -46 11 0
-21 -9 -33 24 0
-21 -10 -33 24 0
-21 -9 -34 24 0
-21 -10 -34 24 0
-22 -9 -33 24 0
-22 -10 -33 24 0
-22 -9 -34 24 0
-22 -10 -34 23 0
-33 -21 -45 36 0
-33 -22 -45 36 0
-33 -21 -46 36 0
-33 -22 -46 36 0
-34 -21 -45 36 0
-34 -22 -45 36 0
-34 -21 -46 36 0
-34 -22 -46 35 0
-45 -9 -33 48 0
-45 -10 -33 48 0
-45 -9 -34 48 0
-45 -10 -34 48 0
-46 -9 -33 48 0
-46 -10 -33 48 0
-46 -9 -34 48 0
-46 -10 -34 47 0
50 51 52 53 54 0
57 58 -50 0
1 -57 0
3 -57 0
2 -58 0
4 -58 0
69 70 -50 0
13 -69 0
15 -69 0
14 -70 0
16 -70 0
81 82 -50 0
25 -81 0
27 -81 0
26 -82 0
28 -82 0
93 94 -50 0
37 -93 0
39 -93 0
38 -94 0
40 -94 0
59 60 -51 0
1 -59 0
5 -59 0
2 -60 0
6 -60 0
71 72 -51 0
13 -71 0
17 -71 0
14 -72 0
18 -72 0
83 84 -51 0
25 -83 0
29 -83 0
26 -84 0
30 -84 0
95 96 -51 0
37 -95 0
41 -95 0
38 -96 0
42 -96 0
61 62 -52 0
1 -61 0
7 -61 0
2 -62 0
8 -62 0
73 74 -52 0
13 -73 0
19 -73 0
14 -74 0
20 -74 0
85 86 -52 0
25 -85 0
31 -85 0
26 -86 0
32 -86 0
97 98 -52 0
37 -97 0
43 -97 0
38 -98 0
44 -98 0
63 64 -53 0
1 -63 0
9 -63 0
2 -64 0
10 -64 0
75 76 -53 0
13 -75 0
21 -75 0
14 -76 0
22 -76 0
87 88 -53 0
25 -87 0
33 -87 0
26 -88 0
34 -88 0
99 100 -53 0
37 -99 0
45 -99 0
38 -100 0
46 -100 0
65 66 -54 0
1 -65 0
11 -65 0
2 -66 0
12 -66 0
77 78 -54 0
13 -77 0
23 -77 0
14 -78 0
24 -78 0
89 90 -54 0
25 -89 0
35 -89 0
26 -90 0
36 -90 0
101 102 -54 0
37 -101 0
47 -101 0
38 -102 0
48 -102 0
-1 -13 -25 -37 0
-2 -14 -26 -38 0
